problem_generation/data/GISP/train/er_n=63_m=1183_p=0.60_SET2_setparam=100.00_alpha=0.50_524.lp
maximize
OBJ:100x0 + 100x1 + 100x2 + 100x3 + 100x4 + 100x5 + 100x6 + 100x7 + 100x8 + 100x9 + 100x10 + 100x11 + 100x12 + 100x13 + 100x14 + 100x15 + 100x16 + 100x17 + 100x18 + 100x19 + 100x20 + 100x21 + 100x22 + 100x23 + 100x24 + 100x25 + 100x26 + 100x27 + 100x28 + 100x29 + 100x30 + 100x31 + 100x32 + 100x33 + 100x34 + 100x35 + 100x36 + 100x37 + 100x38 + 100x39 + 100x40 + 100x41 + 100x42 + 100x43 + 100x44 + 100x45 + 100x46 + 100x47 + 100x48 + 100x49 + 100x50 + 100x51 + 100x52 + 100x53 + 100x54 + 100x55 + 100x56 + 100x57 + 100x58 + 100x59 + 100x60 + 100x61 + 100x62 - y7_17 - y47_53 - y15_39 - y8_9 - y0_14 - y40_50 - y11_23 - y41_42 - y10_36 - y10_45 - y2_41 - y10_54 - y33_56 - y25_52 - y3_15 - y22_28 - y25_61 - y3_24 - y14_24 - y32_60 - y3_33 - y22_46 - y14_42 - y36_48 - y47_48 - y15_25 - y18_21 - y48_58 - y6_52 - y21_50 - y33_42 - y2_36 - y2_45 - y10_58 - y43_55 - y35_60 - y3_37 - y16_56 - y7_16 - y36_52 - y5_46 - y17_48 - y28_48 - y36_61 - y6_56 - y40_58 - y39_62 - y10_35 - y10_44 - y2_40 - y3_5 - y32_41 - y2_49 - y3_14 - y43_50 - y22_27 - y13_46 - y35_46 - y43_59 - y35_55 - y36_38 - y9_30 - y5_41 - y17_43 - y28_43 - y47_56 - y28_61 - y6_24 - y9_57 - y50_58 - y29_44 - y21_40 - y6_51 - y21_49 - y10_12 - y2_8 - y10_21 - y39_57 - y31_53 - y10_30 - y3_9 - y32_45 - y43_45 - y14_18 - y13_50 - y35_50 - y24_59 - y16_55 - y17_20 - y28_29 - y5_36 - y17_38 - y28_47 - y21_26 - y61_62 - y2_3 - y24_27 - y32_40 - y13_36 - y43_58 - y16_50 - y16_59 - y5_22 - y46_60 - y57_60 - y5_40 - y9_38 - y5_49 - y5_58 - y58_61 - y42_44 - y21_30 - y19_60 - y30_60 - y0_56 - y20_34 - y10_11 - y39_47 - y2_7 - y31_43 - y2_16 - y31_52 - y31_61 - y4_44 - y4_53 - y32_35 - y1_29 - y35_40 - y1_47 - y24_49 - y1_56 - y5_17 - y46_55 - y49_51 - y49_60 - y5_35 - y9_33 - y27_50 - y30_46 - y27_59 - y50_61 - y8_55 - y11_60 - y23_25 - y39_51 - y20_47 - y12_43 - y23_43 - y4_39 - y1_15 - y13_17 - y23_61 - y1_24 - y24_26 - y32_39 - y16_22 - y1_42 - y46_50 - y9_10 - y17_23 - y9_19 - y9_28 - y15_62 - y6_13 - y19_32 - y19_41 - y27_54 - y0_37 - y42_52 - y0_46 - y8_59 - y42_61 - y39_46 - y12_29 - y23_29 - y23_38 - y12_56 - y13_21 - y53_57 - y24_30 - y4_61 - y16_26 - y45_62 - y38_41 - y15_48 - y15_57 - y8_36 - y19_36 - y30_36 - y19_45 - y42_47 - y42_56 - y11_50 - y12_15 - y0_59 - y39_41 - y31_37 - y23_42 - y1_14 - y13_16 - y34_48 - y24_25 - y34_57 - y3_51 - y5_11 - y15_43 - y7_39 - y18_39 - y18_48 - y8_13 - y26_61 - y8_22 - y19_22 - y30_31 - y0_27 - y27_53 - y0_36 - y8_49 - y41_46 - y4_6 - y11_54 - y41_55 - y52_55 - y20_32 - y23_37 - y4_33 - y1_9 - y1_18 - y37_39 - y37_57 - y15_20 - y7_25 - y38_40 - y15_47 - y26_47 - y38_49 - y18_43 - y0_4 - y48_62 - y0_22 - y11_31 - y8_44 - y30_44 - y11_40 - y11_49 - y4_10 - y33_46 - y4_19 - y10_53 - y1_4 - y34_38 - y1_13 - y34_47 - y22_54 - y14_59 - y18_20 - y18_29 - y7_38 - y18_38 - y19_21 - y40_53 - y8_30 - y11_26 - y29_62 - y40_62 - y11_35 - y41_45 - y41_54 - y10_48 - y25_55 - y2_62 - y3_27 - y14_45 - y22_58 - y3_54 - y14_54 - y15_19 - y7_15 - y15_28 - y18_24 - y59_62 - y26_37 - y18_33 - y26_46 - y0_3 - y29_39 - y8_16 - y48_52 - y11_12 - y40_48 - y21_44 - y0_21 - y40_57 - y2_39 - y33_54 - y3_13 - y22_26 - y2_57 - y25_59 - y14_31 - y7_19 - y47_55 - y15_32 - y17_51 - y9_56 - y8_11 - y0_7 - y48_56 - y0_16 - y11_16 - y29_52 - y29_61 - y10_29 - y2_25 - y25_27 - y10_38 - y25_36 - y44_49 - y25_45 - y10_56 - y51_57 - y25_54 - y3_17 - y14_26 - y32_62 - y24_58 - y14_35 - y17_46 - y7_23 - y9_42 - y59_61 - y28_55 - y6_27 - y6_36 - y21_34 - y6_54 - y21_52 - y21_61 - y2_20 - y33_35 - y2_29 - y10_42 - y2_47 - y43_48 - y3_21 - y32_57 - y43_57 - y3_30 - y16_58 - y28_32 - y7_9 - y36_45 - y17_41 - y9_46 - y28_59 - y6_22 - y9_55 - y6_31 - y29_42 - y6_49 - y29_51 - y2_24 - y25_26 - y32_34 - y13_39 - y35_39 - y3_16 - y14_16 - y43_52 - y13_48 - y24_48 - y14_25 - y16_44 - y32_61 - y1_55 - y13_57 - y43_61 - y36_40 - y5_34 - y17_36 - y36_49 - y28_45 - y6_8 - y9_50 - y6_26 - y2_10 - y20_55 - y54_57 - y10_32 - y13_25 - y2_37 - y24_34 - y3_11 - y32_47 - y43_47 - y35_43 - y16_48 - y17_22 - y9_27 - y42_51 - y6_39 - y19_58 - y20_59 - y4_42 - y54_61 - y23_55 - y32_33 - y1_27 - y4_60 - y1_36 - y13_38 - y35_38 - y1_45 - y13_47 - y16_43 - y5_15 - y17_26 - y9_22 - y5_33 - y28_35 - y5_51 - y6_16 - y27_48 - y27_57 - y8_53 - y42_55 - y19_62 - y11_58 - y39_40 - y20_36 - y2_18 - y4_37 - y54_56 - y23_50 - y13_15 - y4_46 - y12_59 - y1_22 - y32_37 - y16_20 - y1_40 - y24_42 - y35_51 - y16_47 - y1_58 - y5_19 - y17_21 - y5_28 - y9_26 - y27_43 - y6_20 - y19_39 - y8_48 - y19_48 - y11_44 - y30_57 - y0_53 - y12_18 - y0_62 - y12_27 - y23_27 - y20_40 - y31_40 - y20_49 - y31_49 - y23_45 - y20_58 - y4_41 - y31_58 - y4_50 - y45_60 - y24_37 - y16_42 - y5_14 - y15_46 - y5_23 - y57_61 - y49_57 - y18_51 - y27_29 - y27_38 - y8_34 - y27_47 - y19_43 - y0_39 - y11_39 - y8_52 - y42_54 - y20_26 - y23_31 - y1_3 - y12_49 - y1_39 - y37_60 - y15_41 - y26_41 - y5_18 - y38_43 - y46_56 - y26_50 - y18_46 - y49_61 - y27_33 - y19_38 - y19_56 - y0_52 - y52_53 - y20_30 - y4_13 - y0_61 - y11_61 - y12_26 - y23_26 - y31_39 - y52_62 - y23_35 - y4_31 - y53_54 - y34_50 - y1_25 - y16_23 - y22_57 - y34_59 - y56_59 - y18_41 - y15_54 - y26_54 - y18_50 - y18_59 - y48_60 - y11_20 - y11_29 - y30_42 - y0_38 - y11_47 - y41_48 - y4_8 - y4_17 - y33_53 - y10_60 - y33_62 - y22_43 - y1_20 - y3_39 - y14_39 - y14_48 - y22_61 - y26_31 - y26_49 - y18_45 - y8_10 - y15_58 - y7_54 - y11_15 - y0_24 - y11_24 - y0_33 - y11_33 - y41_43 - y10_46 - y25_44 - y2_51 - y1_6 - y2_60 - y22_47 - y34_49 - y37_45 - y22_56 - y45_58 - y56_58 - y26_35 - y7_31 - y15_44 - y48_50 - y19_23 - y0_28 - y41_47 - y33_43 - y41_56 - y25_39 - y25_57 - y34_35 - y3_29 - y22_42 - y7_8
 Subject to
C1: x0+x1 <=1 
C2: x0+x2 <=1 
C3: x0+x3-y0_3 <=1 
C4: x0+x4-y0_4 <=1 
C5: x0+x6 <=1 
C6: x0+x7-y0_7 <=1 
C7: x0+x8 <=1 
C8: x0+x10 <=1 
C9: x0+x12 <=1 
C10: x0+x14-y0_14 <=1 
C11: x0+x15 <=1 
C12: x0+x16-y0_16 <=1 
C13: x0+x18 <=1 
C14: x0+x19 <=1 
C15: x0+x20 <=1 
C16: x0+x21-y0_21 <=1 
C17: x0+x22-y0_22 <=1 
C18: x0+x23 <=1 
C19: x0+x24-y0_24 <=1 
C20: x0+x25 <=1 
C21: x0+x26 <=1 
C22: x0+x27-y0_27 <=1 
C23: x0+x28-y0_28 <=1 
C24: x0+x29 <=1 
C25: x0+x32 <=1 
C26: x0+x33-y0_33 <=1 
C27: x0+x34 <=1 
C28: x0+x35 <=1 
C29: x0+x36-y0_36 <=1 
C30: x0+x37-y0_37 <=1 
C31: x0+x38-y0_38 <=1 
C32: x0+x39-y0_39 <=1 
C33: x0+x43 <=1 
C34: x0+x46-y0_46 <=1 
C35: x0+x51 <=1 
C36: x0+x52-y0_52 <=1 
C37: x0+x53-y0_53 <=1 
C38: x0+x56-y0_56 <=1 
C39: x0+x57 <=1 
C40: x0+x58 <=1 
C41: x0+x59-y0_59 <=1 
C42: x0+x60 <=1 
C43: x0+x61-y0_61 <=1 
C44: x0+x62-y0_62 <=1 
C45: x1+x3-y1_3 <=1 
C46: x1+x4-y1_4 <=1 
C47: x1+x5 <=1 
C48: x1+x6-y1_6 <=1 
C49: x1+x7 <=1 
C50: x1+x9-y1_9 <=1 
C51: x1+x11 <=1 
C52: x1+x13-y1_13 <=1 
C53: x1+x14-y1_14 <=1 
C54: x1+x15-y1_15 <=1 
C55: x1+x17 <=1 
C56: x1+x18-y1_18 <=1 
C57: x1+x20-y1_20 <=1 
C58: x1+x21 <=1 
C59: x1+x22-y1_22 <=1 
C60: x1+x23 <=1 
C61: x1+x24-y1_24 <=1 
C62: x1+x25-y1_25 <=1 
C63: x1+x27-y1_27 <=1 
C64: x1+x29-y1_29 <=1 
C65: x1+x31 <=1 
C66: x1+x32 <=1 
C67: x1+x36-y1_36 <=1 
C68: x1+x39-y1_39 <=1 
C69: x1+x40-y1_40 <=1 
C70: x1+x41 <=1 
C71: x1+x42-y1_42 <=1 
C72: x1+x45-y1_45 <=1 
C73: x1+x46 <=1 
C74: x1+x47-y1_47 <=1 
C75: x1+x50 <=1 
C76: x1+x51 <=1 
C77: x1+x53 <=1 
C78: x1+x55-y1_55 <=1 
C79: x1+x56-y1_56 <=1 
C80: x1+x58-y1_58 <=1 
C81: x1+x61 <=1 
C82: x1+x62 <=1 
C83: x2+x3-y2_3 <=1 
C84: x2+x7-y2_7 <=1 
C85: x2+x8-y2_8 <=1 
C86: x2+x10-y2_10 <=1 
C87: x2+x11 <=1 
C88: x2+x13 <=1 
C89: x2+x15 <=1 
C90: x2+x16-y2_16 <=1 
C91: x2+x18-y2_18 <=1 
C92: x2+x20-y2_20 <=1 
C93: x2+x23 <=1 
C94: x2+x24-y2_24 <=1 
C95: x2+x25-y2_25 <=1 
C96: x2+x29-y2_29 <=1 
C97: x2+x31 <=1 
C98: x2+x32 <=1 
C99: x2+x34 <=1 
C100: x2+x35 <=1 
C101: x2+x36-y2_36 <=1 
C102: x2+x37-y2_37 <=1 
C103: x2+x39-y2_39 <=1 
C104: x2+x40-y2_40 <=1 
C105: x2+x41-y2_41 <=1 
C106: x2+x43 <=1 
C107: x2+x44 <=1 
C108: x2+x45-y2_45 <=1 
C109: x2+x47-y2_47 <=1 
C110: x2+x48 <=1 
C111: x2+x49-y2_49 <=1 
C112: x2+x51-y2_51 <=1 
C113: x2+x53 <=1 
C114: x2+x55 <=1 
C115: x2+x57-y2_57 <=1 
C116: x2+x59 <=1 
C117: x2+x60-y2_60 <=1 
C118: x2+x61 <=1 
C119: x2+x62-y2_62 <=1 
C120: x3+x5-y3_5 <=1 
C121: x3+x6 <=1 
C122: x3+x8 <=1 
C123: x3+x9-y3_9 <=1 
C124: x3+x10 <=1 
C125: x3+x11-y3_11 <=1 
C126: x3+x12 <=1 
C127: x3+x13-y3_13 <=1 
C128: x3+x14-y3_14 <=1 
C129: x3+x15-y3_15 <=1 
C130: x3+x16-y3_16 <=1 
C131: x3+x17-y3_17 <=1 
C132: x3+x18 <=1 
C133: x3+x21-y3_21 <=1 
C134: x3+x22 <=1 
C135: x3+x23 <=1 
C136: x3+x24-y3_24 <=1 
C137: x3+x27-y3_27 <=1 
C138: x3+x29-y3_29 <=1 
C139: x3+x30-y3_30 <=1 
C140: x3+x31 <=1 
C141: x3+x32 <=1 
C142: x3+x33-y3_33 <=1 
C143: x3+x34 <=1 
C144: x3+x35 <=1 
C145: x3+x37-y3_37 <=1 
C146: x3+x39-y3_39 <=1 
C147: x3+x40 <=1 
C148: x3+x43 <=1 
C149: x3+x44 <=1 
C150: x3+x47 <=1 
C151: x3+x51-y3_51 <=1 
C152: x3+x52 <=1 
C153: x3+x54-y3_54 <=1 
C154: x3+x55 <=1 
C155: x3+x56 <=1 
C156: x3+x57 <=1 
C157: x3+x59 <=1 
C158: x3+x62 <=1 
C159: x4+x6-y4_6 <=1 
C160: x4+x8-y4_8 <=1 
C161: x4+x9 <=1 
C162: x4+x10-y4_10 <=1 
C163: x4+x11 <=1 
C164: x4+x13-y4_13 <=1 
C165: x4+x16 <=1 
C166: x4+x17-y4_17 <=1 
C167: x4+x19-y4_19 <=1 
C168: x4+x21 <=1 
C169: x4+x22 <=1 
C170: x4+x24 <=1 
C171: x4+x25 <=1 
C172: x4+x26 <=1 
C173: x4+x29 <=1 
C174: x4+x30 <=1 
C175: x4+x31-y4_31 <=1 
C176: x4+x32 <=1 
C177: x4+x33-y4_33 <=1 
C178: x4+x34 <=1 
C179: x4+x37-y4_37 <=1 
C180: x4+x39-y4_39 <=1 
C181: x4+x41-y4_41 <=1 
C182: x4+x42-y4_42 <=1 
C183: x4+x43 <=1 
C184: x4+x44-y4_44 <=1 
C185: x4+x45 <=1 
C186: x4+x46-y4_46 <=1 
C187: x4+x47 <=1 
C188: x4+x50-y4_50 <=1 
C189: x4+x53-y4_53 <=1 
C190: x4+x54 <=1 
C191: x4+x55 <=1 
C192: x4+x57 <=1 
C193: x4+x60-y4_60 <=1 
C194: x4+x61-y4_61 <=1 
C195: x5+x11-y5_11 <=1 
C196: x5+x13 <=1 
C197: x5+x14-y5_14 <=1 
C198: x5+x15-y5_15 <=1 
C199: x5+x17-y5_17 <=1 
C200: x5+x18-y5_18 <=1 
C201: x5+x19-y5_19 <=1 
C202: x5+x20 <=1 
C203: x5+x22-y5_22 <=1 
C204: x5+x23-y5_23 <=1 
C205: x5+x28-y5_28 <=1 
C206: x5+x29 <=1 
C207: x5+x30 <=1 
C208: x5+x31 <=1 
C209: x5+x32 <=1 
C210: x5+x33-y5_33 <=1 
C211: x5+x34-y5_34 <=1 
C212: x5+x35-y5_35 <=1 
C213: x5+x36-y5_36 <=1 
C214: x5+x40-y5_40 <=1 
C215: x5+x41-y5_41 <=1 
C216: x5+x44 <=1 
C217: x5+x45 <=1 
C218: x5+x46-y5_46 <=1 
C219: x5+x49-y5_49 <=1 
C220: x5+x51-y5_51 <=1 
C221: x5+x55 <=1 
C222: x5+x56 <=1 
C223: x5+x58-y5_58 <=1 
C224: x5+x60 <=1 
C225: x5+x61 <=1 
C226: x6+x8-y6_8 <=1 
C227: x6+x9 <=1 
C228: x6+x10 <=1 
C229: x6+x11 <=1 
C230: x6+x12 <=1 
C231: x6+x13-y6_13 <=1 
C232: x6+x16-y6_16 <=1 
C233: x6+x19 <=1 
C234: x6+x20-y6_20 <=1 
C235: x6+x22-y6_22 <=1 
C236: x6+x23 <=1 
C237: x6+x24-y6_24 <=1 
C238: x6+x26-y6_26 <=1 
C239: x6+x27-y6_27 <=1 
C240: x6+x28 <=1 
C241: x6+x29 <=1 
C242: x6+x30 <=1 
C243: x6+x31-y6_31 <=1 
C244: x6+x32 <=1 
C245: x6+x36-y6_36 <=1 
C246: x6+x38 <=1 
C247: x6+x39-y6_39 <=1 
C248: x6+x41 <=1 
C249: x6+x42 <=1 
C250: x6+x43 <=1 
C251: x6+x44 <=1 
C252: x6+x45 <=1 
C253: x6+x48 <=1 
C254: x6+x49-y6_49 <=1 
C255: x6+x51-y6_51 <=1 
C256: x6+x52-y6_52 <=1 
C257: x6+x54-y6_54 <=1 
C258: x6+x56-y6_56 <=1 
C259: x6+x57 <=1 
C260: x6+x59 <=1 
C261: x7+x8-y7_8 <=1 
C262: x7+x9-y7_9 <=1 
C263: x7+x10 <=1 
C264: x7+x14 <=1 
C265: x7+x15-y7_15 <=1 
C266: x7+x16-y7_16 <=1 
C267: x7+x17-y7_17 <=1 
C268: x7+x19-y7_19 <=1 
C269: x7+x20 <=1 
C270: x7+x21 <=1 
C271: x7+x22 <=1 
C272: x7+x23-y7_23 <=1 
C273: x7+x24 <=1 
C274: x7+x25-y7_25 <=1 
C275: x7+x29 <=1 
C276: x7+x31-y7_31 <=1 
C277: x7+x36 <=1 
C278: x7+x38-y7_38 <=1 
C279: x7+x39-y7_39 <=1 
C280: x7+x43 <=1 
C281: x7+x44 <=1 
C282: x7+x47 <=1 
C283: x7+x48 <=1 
C284: x7+x49 <=1 
C285: x7+x50 <=1 
C286: x7+x52 <=1 
C287: x7+x54-y7_54 <=1 
C288: x7+x55 <=1 
C289: x7+x56 <=1 
C290: x7+x58 <=1 
C291: x7+x59 <=1 
C292: x7+x62 <=1 
C293: x8+x9-y8_9 <=1 
C294: x8+x10-y8_10 <=1 
C295: x8+x11-y8_11 <=1 
C296: x8+x12 <=1 
C297: x8+x13-y8_13 <=1 
C298: x8+x14 <=1 
C299: x8+x16-y8_16 <=1 
C300: x8+x18 <=1 
C301: x8+x19 <=1 
C302: x8+x20 <=1 
C303: x8+x21 <=1 
C304: x8+x22-y8_22 <=1 
C305: x8+x23 <=1 
C306: x8+x24 <=1 
C307: x8+x25 <=1 
C308: x8+x27 <=1 
C309: x8+x30-y8_30 <=1 
C310: x8+x32 <=1 
C311: x8+x33 <=1 
C312: x8+x34-y8_34 <=1 
C313: x8+x36-y8_36 <=1 
C314: x8+x38 <=1 
C315: x8+x40 <=1 
C316: x8+x43 <=1 
C317: x8+x44-y8_44 <=1 
C318: x8+x46 <=1 
C319: x8+x48-y8_48 <=1 
C320: x8+x49-y8_49 <=1 
C321: x8+x51 <=1 
C322: x8+x52-y8_52 <=1 
C323: x8+x53-y8_53 <=1 
C324: x8+x55-y8_55 <=1 
C325: x8+x57 <=1 
C326: x8+x59-y8_59 <=1 
C327: x8+x61 <=1 
C328: x8+x62 <=1 
C329: x9+x10-y9_10 <=1 
C330: x9+x12 <=1 
C331: x9+x13 <=1 
C332: x9+x14 <=1 
C333: x9+x16 <=1 
C334: x9+x18 <=1 
C335: x9+x19-y9_19 <=1 
C336: x9+x20 <=1 
C337: x9+x22-y9_22 <=1 
C338: x9+x23 <=1 
C339: x9+x26-y9_26 <=1 
C340: x9+x27-y9_27 <=1 
C341: x9+x28-y9_28 <=1 
C342: x9+x30-y9_30 <=1 
C343: x9+x33-y9_33 <=1 
C344: x9+x38-y9_38 <=1 
C345: x9+x39 <=1 
C346: x9+x40 <=1 
C347: x9+x41 <=1 
C348: x9+x42-y9_42 <=1 
C349: x9+x43 <=1 
C350: x9+x46-y9_46 <=1 
C351: x9+x47 <=1 
C352: x9+x50-y9_50 <=1 
C353: x9+x53 <=1 
C354: x9+x54 <=1 
C355: x9+x55-y9_55 <=1 
C356: x9+x56-y9_56 <=1 
C357: x9+x57-y9_57 <=1 
C358: x9+x60 <=1 
C359: x9+x61 <=1 
C360: x10+x11-y10_11 <=1 
C361: x10+x12-y10_12 <=1 
C362: x10+x14 <=1 
C363: x10+x18 <=1 
C364: x10+x21-y10_21 <=1 
C365: x10+x24 <=1 
C366: x10+x25 <=1 
C367: x10+x29-y10_29 <=1 
C368: x10+x30-y10_30 <=1 
C369: x10+x31 <=1 
C370: x10+x32-y10_32 <=1 
C371: x10+x33 <=1 
C372: x10+x34 <=1 
C373: x10+x35-y10_35 <=1 
C374: x10+x36-y10_36 <=1 
C375: x10+x37 <=1 
C376: x10+x38-y10_38 <=1 
C377: x10+x42-y10_42 <=1 
C378: x10+x44-y10_44 <=1 
C379: x10+x45-y10_45 <=1 
C380: x10+x46-y10_46 <=1 
C381: x10+x48-y10_48 <=1 
C382: x10+x49 <=1 
C383: x10+x50 <=1 
C384: x10+x51 <=1 
C385: x10+x53-y10_53 <=1 
C386: x10+x54-y10_54 <=1 
C387: x10+x55 <=1 
C388: x10+x56-y10_56 <=1 
C389: x10+x57 <=1 
C390: x10+x58-y10_58 <=1 
C391: x10+x60-y10_60 <=1 
C392: x10+x61 <=1 
C393: x11+x12-y11_12 <=1 
C394: x11+x15-y11_15 <=1 
C395: x11+x16-y11_16 <=1 
C396: x11+x19 <=1 
C397: x11+x20-y11_20 <=1 
C398: x11+x23-y11_23 <=1 
C399: x11+x24-y11_24 <=1 
C400: x11+x26-y11_26 <=1 
C401: x11+x27 <=1 
C402: x11+x28 <=1 
C403: x11+x29-y11_29 <=1 
C404: x11+x31-y11_31 <=1 
C405: x11+x32 <=1 
C406: x11+x33-y11_33 <=1 
C407: x11+x35-y11_35 <=1 
C408: x11+x37 <=1 
C409: x11+x39-y11_39 <=1 
C410: x11+x40-y11_40 <=1 
C411: x11+x41 <=1 
C412: x11+x44-y11_44 <=1 
C413: x11+x47-y11_47 <=1 
C414: x11+x48 <=1 
C415: x11+x49-y11_49 <=1 
C416: x11+x50-y11_50 <=1 
C417: x11+x54-y11_54 <=1 
C418: x11+x56 <=1 
C419: x11+x57 <=1 
C420: x11+x58-y11_58 <=1 
C421: x11+x60-y11_60 <=1 
C422: x11+x61-y11_61 <=1 
C423: x12+x15-y12_15 <=1 
C424: x12+x16 <=1 
C425: x12+x17 <=1 
C426: x12+x18-y12_18 <=1 
C427: x12+x23 <=1 
C428: x12+x26-y12_26 <=1 
C429: x12+x27-y12_27 <=1 
C430: x12+x29-y12_29 <=1 
C431: x12+x30 <=1 
C432: x12+x31 <=1 
C433: x12+x32 <=1 
C434: x12+x34 <=1 
C435: x12+x36 <=1 
C436: x12+x37 <=1 
C437: x12+x38 <=1 
C438: x12+x39 <=1 
C439: x12+x40 <=1 
C440: x12+x43-y12_43 <=1 
C441: x12+x45 <=1 
C442: x12+x47 <=1 
C443: x12+x48 <=1 
C444: x12+x49-y12_49 <=1 
C445: x12+x52 <=1 
C446: x12+x53 <=1 
C447: x12+x56-y12_56 <=1 
C448: x12+x57 <=1 
C449: x12+x59-y12_59 <=1 
C450: x12+x62 <=1 
C451: x13+x14 <=1 
C452: x13+x15-y13_15 <=1 
C453: x13+x16-y13_16 <=1 
C454: x13+x17-y13_17 <=1 
C455: x13+x18 <=1 
C456: x13+x21-y13_21 <=1 
C457: x13+x22 <=1 
C458: x13+x23 <=1 
C459: x13+x25-y13_25 <=1 
C460: x13+x36-y13_36 <=1 
C461: x13+x37 <=1 
C462: x13+x38-y13_38 <=1 
C463: x13+x39-y13_39 <=1 
C464: x13+x40 <=1 
C465: x13+x42 <=1 
C466: x13+x46-y13_46 <=1 
C467: x13+x47-y13_47 <=1 
C468: x13+x48-y13_48 <=1 
C469: x13+x49 <=1 
C470: x13+x50-y13_50 <=1 
C471: x13+x52 <=1 
C472: x13+x54 <=1 
C473: x13+x57-y13_57 <=1 
C474: x13+x58 <=1 
C475: x13+x60 <=1 
C476: x13+x62 <=1 
C477: x14+x16-y14_16 <=1 
C478: x14+x18-y14_18 <=1 
C479: x14+x20 <=1 
C480: x14+x22 <=1 
C481: x14+x23 <=1 
C482: x14+x24-y14_24 <=1 
C483: x14+x25-y14_25 <=1 
C484: x14+x26-y14_26 <=1 
C485: x14+x29 <=1 
C486: x14+x30 <=1 
C487: x14+x31-y14_31 <=1 
C488: x14+x32 <=1 
C489: x14+x34 <=1 
C490: x14+x35-y14_35 <=1 
C491: x14+x39-y14_39 <=1 
C492: x14+x40 <=1 
C493: x14+x41 <=1 
C494: x14+x42-y14_42 <=1 
C495: x14+x45-y14_45 <=1 
C496: x14+x48-y14_48 <=1 
C497: x14+x49 <=1 
C498: x14+x50 <=1 
C499: x14+x52 <=1 
C500: x14+x53 <=1 
C501: x14+x54-y14_54 <=1 
C502: x14+x56 <=1 
C503: x14+x59-y14_59 <=1 
C504: x14+x61 <=1 
C505: x15+x16 <=1 
C506: x15+x19-y15_19 <=1 
C507: x15+x20-y15_20 <=1 
C508: x15+x22 <=1 
C509: x15+x24 <=1 
C510: x15+x25-y15_25 <=1 
C511: x15+x27 <=1 
C512: x15+x28-y15_28 <=1 
C513: x15+x31 <=1 
C514: x15+x32-y15_32 <=1 
C515: x15+x37 <=1 
C516: x15+x39-y15_39 <=1 
C517: x15+x41-y15_41 <=1 
C518: x15+x42 <=1 
C519: x15+x43-y15_43 <=1 
C520: x15+x44-y15_44 <=1 
C521: x15+x46-y15_46 <=1 
C522: x15+x47-y15_47 <=1 
C523: x15+x48-y15_48 <=1 
C524: x15+x51 <=1 
C525: x15+x52 <=1 
C526: x15+x53 <=1 
C527: x15+x54-y15_54 <=1 
C528: x15+x55 <=1 
C529: x15+x57-y15_57 <=1 
C530: x15+x58-y15_58 <=1 
C531: x15+x59 <=1 
C532: x15+x60 <=1 
C533: x15+x62-y15_62 <=1 
C534: x16+x20-y16_20 <=1 
C535: x16+x21 <=1 
C536: x16+x22-y16_22 <=1 
C537: x16+x23-y16_23 <=1 
C538: x16+x26-y16_26 <=1 
C539: x16+x28 <=1 
C540: x16+x31 <=1 
C541: x16+x35 <=1 
C542: x16+x36 <=1 
C543: x16+x37 <=1 
C544: x16+x39 <=1 
C545: x16+x41 <=1 
C546: x16+x42-y16_42 <=1 
C547: x16+x43-y16_43 <=1 
C548: x16+x44-y16_44 <=1 
C549: x16+x47-y16_47 <=1 
C550: x16+x48-y16_48 <=1 
C551: x16+x50-y16_50 <=1 
C552: x16+x51 <=1 
C553: x16+x52 <=1 
C554: x16+x53 <=1 
C555: x16+x54 <=1 
C556: x16+x55-y16_55 <=1 
C557: x16+x56-y16_56 <=1 
C558: x16+x57 <=1 
C559: x16+x58-y16_58 <=1 
C560: x16+x59-y16_59 <=1 
C561: x16+x61 <=1 
C562: x17+x18 <=1 
C563: x17+x20-y17_20 <=1 
C564: x17+x21-y17_21 <=1 
C565: x17+x22-y17_22 <=1 
C566: x17+x23-y17_23 <=1 
C567: x17+x24 <=1 
C568: x17+x26-y17_26 <=1 
C569: x17+x35 <=1 
C570: x17+x36-y17_36 <=1 
C571: x17+x37 <=1 
C572: x17+x38-y17_38 <=1 
C573: x17+x39 <=1 
C574: x17+x41-y17_41 <=1 
C575: x17+x42 <=1 
C576: x17+x43-y17_43 <=1 
C577: x17+x44 <=1 
C578: x17+x46-y17_46 <=1 
C579: x17+x47 <=1 
C580: x17+x48-y17_48 <=1 
C581: x17+x51-y17_51 <=1 
C582: x17+x55 <=1 
C583: x17+x56 <=1 
C584: x17+x57 <=1 
C585: x17+x59 <=1 
C586: x17+x61 <=1 
C587: x17+x62 <=1 
C588: x18+x19 <=1 
C589: x18+x20-y18_20 <=1 
C590: x18+x21-y18_21 <=1 
C591: x18+x22 <=1 
C592: x18+x24-y18_24 <=1 
C593: x18+x27 <=1 
C594: x18+x28 <=1 
C595: x18+x29-y18_29 <=1 
C596: x18+x30 <=1 
C597: x18+x31 <=1 
C598: x18+x32 <=1 
C599: x18+x33-y18_33 <=1 
C600: x18+x34 <=1 
C601: x18+x35 <=1 
C602: x18+x36 <=1 
C603: x18+x38-y18_38 <=1 
C604: x18+x39-y18_39 <=1 
C605: x18+x40 <=1 
C606: x18+x41-y18_41 <=1 
C607: x18+x43-y18_43 <=1 
C608: x18+x45-y18_45 <=1 
C609: x18+x46-y18_46 <=1 
C610: x18+x47 <=1 
C611: x18+x48-y18_48 <=1 
C612: x18+x50-y18_50 <=1 
C613: x18+x51-y18_51 <=1 
C614: x18+x52 <=1 
C615: x18+x57 <=1 
C616: x18+x59-y18_59 <=1 
C617: x18+x60 <=1 
C618: x18+x62 <=1 
C619: x19+x21-y19_21 <=1 
C620: x19+x22-y19_22 <=1 
C621: x19+x23-y19_23 <=1 
C622: x19+x24 <=1 
C623: x19+x25 <=1 
C624: x19+x29 <=1 
C625: x19+x30 <=1 
C626: x19+x31 <=1 
C627: x19+x32-y19_32 <=1 
C628: x19+x36-y19_36 <=1 
C629: x19+x38-y19_38 <=1 
C630: x19+x39-y19_39 <=1 
C631: x19+x41-y19_41 <=1 
C632: x19+x43-y19_43 <=1 
C633: x19+x44 <=1 
C634: x19+x45-y19_45 <=1 
C635: x19+x46 <=1 
C636: x19+x47 <=1 
C637: x19+x48-y19_48 <=1 
C638: x19+x49 <=1 
C639: x19+x51 <=1 
C640: x19+x55 <=1 
C641: x19+x56-y19_56 <=1 
C642: x19+x58-y19_58 <=1 
C643: x19+x60-y19_60 <=1 
C644: x19+x61 <=1 
C645: x19+x62-y19_62 <=1 
C646: x20+x23 <=1 
C647: x20+x26-y20_26 <=1 
C648: x20+x28 <=1 
C649: x20+x30-y20_30 <=1 
C650: x20+x32-y20_32 <=1 
C651: x20+x33 <=1 
C652: x20+x34-y20_34 <=1 
C653: x20+x36-y20_36 <=1 
C654: x20+x37 <=1 
C655: x20+x38 <=1 
C656: x20+x40-y20_40 <=1 
C657: x20+x41 <=1 
C658: x20+x45 <=1 
C659: x20+x47-y20_47 <=1 
C660: x20+x48 <=1 
C661: x20+x49-y20_49 <=1 
C662: x20+x51 <=1 
C663: x20+x53 <=1 
C664: x20+x54 <=1 
C665: x20+x55-y20_55 <=1 
C666: x20+x58-y20_58 <=1 
C667: x20+x59-y20_59 <=1 
C668: x20+x60 <=1 
C669: x21+x22 <=1 
C670: x21+x24 <=1 
C671: x21+x26-y21_26 <=1 
C672: x21+x27 <=1 
C673: x21+x30-y21_30 <=1 
C674: x21+x32 <=1 
C675: x21+x33 <=1 
C676: x21+x34-y21_34 <=1 
C677: x21+x35 <=1 
C678: x21+x37 <=1 
C679: x21+x39 <=1 
C680: x21+x40-y21_40 <=1 
C681: x21+x42 <=1 
C682: x21+x43 <=1 
C683: x21+x44-y21_44 <=1 
C684: x21+x45 <=1 
C685: x21+x49-y21_49 <=1 
C686: x21+x50-y21_50 <=1 
C687: x21+x51 <=1 
C688: x21+x52-y21_52 <=1 
C689: x21+x56 <=1 
C690: x21+x57 <=1 
C691: x21+x60 <=1 
C692: x21+x61-y21_61 <=1 
C693: x22+x26-y22_26 <=1 
C694: x22+x27-y22_27 <=1 
C695: x22+x28-y22_28 <=1 
C696: x22+x30 <=1 
C697: x22+x31 <=1 
C698: x22+x33 <=1 
C699: x22+x36 <=1 
C700: x22+x39 <=1 
C701: x22+x42-y22_42 <=1 
C702: x22+x43-y22_43 <=1 
C703: x22+x44 <=1 
C704: x22+x45 <=1 
C705: x22+x46-y22_46 <=1 
C706: x22+x47-y22_47 <=1 
C707: x22+x50 <=1 
C708: x22+x51 <=1 
C709: x22+x53 <=1 
C710: x22+x54-y22_54 <=1 
C711: x22+x56-y22_56 <=1 
C712: x22+x57-y22_57 <=1 
C713: x22+x58-y22_58 <=1 
C714: x22+x61-y22_61 <=1 
C715: x23+x24 <=1 
C716: x23+x25-y23_25 <=1 
C717: x23+x26-y23_26 <=1 
C718: x23+x27-y23_27 <=1 
C719: x23+x28 <=1 
C720: x23+x29-y23_29 <=1 
C721: x23+x31-y23_31 <=1 
C722: x23+x35-y23_35 <=1 
C723: x23+x37-y23_37 <=1 
C724: x23+x38-y23_38 <=1 
C725: x23+x39 <=1 
C726: x23+x42-y23_42 <=1 
C727: x23+x43-y23_43 <=1 
C728: x23+x44 <=1 
C729: x23+x45-y23_45 <=1 
C730: x23+x47 <=1 
C731: x23+x48 <=1 
C732: x23+x50-y23_50 <=1 
C733: x23+x53 <=1 
C734: x23+x55-y23_55 <=1 
C735: x23+x56 <=1 
C736: x23+x61-y23_61 <=1 
C737: x24+x25-y24_25 <=1 
C738: x24+x26-y24_26 <=1 
C739: x24+x27-y24_27 <=1 
C740: x24+x28 <=1 
C741: x24+x30-y24_30 <=1 
C742: x24+x32 <=1 
C743: x24+x34-y24_34 <=1 
C744: x24+x35 <=1 
C745: x24+x36 <=1 
C746: x24+x37-y24_37 <=1 
C747: x24+x41 <=1 
C748: x24+x42-y24_42 <=1 
C749: x24+x43 <=1 
C750: x24+x45 <=1 
C751: x24+x46 <=1 
C752: x24+x47 <=1 
C753: x24+x48-y24_48 <=1 
C754: x24+x49-y24_49 <=1 
C755: x24+x54 <=1 
C756: x24+x55 <=1 
C757: x24+x56 <=1 
C758: x24+x57 <=1 
C759: x24+x58-y24_58 <=1 
C760: x24+x59-y24_59 <=1 
C761: x24+x61 <=1 
C762: x24+x62 <=1 
C763: x25+x26-y25_26 <=1 
C764: x25+x27-y25_27 <=1 
C765: x25+x28 <=1 
C766: x25+x29 <=1 
C767: x25+x31 <=1 
C768: x25+x33 <=1 
C769: x25+x35 <=1 
C770: x25+x36-y25_36 <=1 
C771: x25+x37 <=1 
C772: x25+x39-y25_39 <=1 
C773: x25+x41 <=1 
C774: x25+x43 <=1 
C775: x25+x44-y25_44 <=1 
C776: x25+x45-y25_45 <=1 
C777: x25+x46 <=1 
C778: x25+x51 <=1 
C779: x25+x52-y25_52 <=1 
C780: x25+x54-y25_54 <=1 
C781: x25+x55-y25_55 <=1 
C782: x25+x57-y25_57 <=1 
C783: x25+x58 <=1 
C784: x25+x59-y25_59 <=1 
C785: x25+x60 <=1 
C786: x25+x61-y25_61 <=1 
C787: x26+x27 <=1 
C788: x26+x28 <=1 
C789: x26+x31-y26_31 <=1 
C790: x26+x34 <=1 
C791: x26+x35-y26_35 <=1 
C792: x26+x36 <=1 
C793: x26+x37-y26_37 <=1 
C794: x26+x38 <=1 
C795: x26+x39 <=1 
C796: x26+x41-y26_41 <=1 
C797: x26+x45 <=1 
C798: x26+x46-y26_46 <=1 
C799: x26+x47-y26_47 <=1 
C800: x26+x48 <=1 
C801: x26+x49-y26_49 <=1 
C802: x26+x50-y26_50 <=1 
C803: x26+x51 <=1 
C804: x26+x53 <=1 
C805: x26+x54-y26_54 <=1 
C806: x26+x57 <=1 
C807: x26+x58 <=1 
C808: x26+x61-y26_61 <=1 
C809: x26+x62 <=1 
C810: x27+x29-y27_29 <=1 
C811: x27+x31 <=1 
C812: x27+x33-y27_33 <=1 
C813: x27+x38-y27_38 <=1 
C814: x27+x40 <=1 
C815: x27+x41 <=1 
C816: x27+x43-y27_43 <=1 
C817: x27+x47-y27_47 <=1 
C818: x27+x48-y27_48 <=1 
C819: x27+x50-y27_50 <=1 
C820: x27+x51 <=1 
C821: x27+x52 <=1 
C822: x27+x53-y27_53 <=1 
C823: x27+x54-y27_54 <=1 
C824: x27+x56 <=1 
C825: x27+x57-y27_57 <=1 
C826: x27+x59-y27_59 <=1 
C827: x27+x61 <=1 
C828: x28+x29-y28_29 <=1 
C829: x28+x32-y28_32 <=1 
C830: x28+x34 <=1 
C831: x28+x35-y28_35 <=1 
C832: x28+x39 <=1 
C833: x28+x43-y28_43 <=1 
C834: x28+x45-y28_45 <=1 
C835: x28+x47-y28_47 <=1 
C836: x28+x48-y28_48 <=1 
C837: x28+x49 <=1 
C838: x28+x50 <=1 
C839: x28+x51 <=1 
C840: x28+x52 <=1 
C841: x28+x54 <=1 
C842: x28+x55-y28_55 <=1 
C843: x28+x59-y28_59 <=1 
C844: x28+x60 <=1 
C845: x28+x61-y28_61 <=1 
C846: x29+x30 <=1 
C847: x29+x31 <=1 
C848: x29+x32 <=1 
C849: x29+x33 <=1 
C850: x29+x39-y29_39 <=1 
C851: x29+x40 <=1 
C852: x29+x42-y29_42 <=1 
C853: x29+x44-y29_44 <=1 
C854: x29+x45 <=1 
C855: x29+x46 <=1 
C856: x29+x47 <=1 
C857: x29+x51-y29_51 <=1 
C858: x29+x52-y29_52 <=1 
C859: x29+x53 <=1 
C860: x29+x56 <=1 
C861: x29+x57 <=1 
C862: x29+x61-y29_61 <=1 
C863: x29+x62-y29_62 <=1 
C864: x30+x31-y30_31 <=1 
C865: x30+x32 <=1 
C866: x30+x33 <=1 
C867: x30+x34 <=1 
C868: x30+x36-y30_36 <=1 
C869: x30+x38 <=1 
C870: x30+x40 <=1 
C871: x30+x42-y30_42 <=1 
C872: x30+x44-y30_44 <=1 
C873: x30+x45 <=1 
C874: x30+x46-y30_46 <=1 
C875: x30+x47 <=1 
C876: x30+x50 <=1 
C877: x30+x53 <=1 
C878: x30+x57-y30_57 <=1 
C879: x30+x59 <=1 
C880: x30+x60-y30_60 <=1 
C881: x30+x61 <=1 
C882: x31+x35 <=1 
C883: x31+x36 <=1 
C884: x31+x37-y31_37 <=1 
C885: x31+x38 <=1 
C886: x31+x39-y31_39 <=1 
C887: x31+x40-y31_40 <=1 
C888: x31+x42 <=1 
C889: x31+x43-y31_43 <=1 
C890: x31+x44 <=1 
C891: x31+x47 <=1 
C892: x31+x49-y31_49 <=1 
C893: x31+x50 <=1 
C894: x31+x51 <=1 
C895: x31+x52-y31_52 <=1 
C896: x31+x53-y31_53 <=1 
C897: x31+x54 <=1 
C898: x31+x57 <=1 
C899: x31+x58-y31_58 <=1 
C900: x31+x60 <=1 
C901: x31+x61-y31_61 <=1 
C902: x32+x33-y32_33 <=1 
C903: x32+x34-y32_34 <=1 
C904: x32+x35-y32_35 <=1 
C905: x32+x36 <=1 
C906: x32+x37-y32_37 <=1 
C907: x32+x38 <=1 
C908: x32+x39-y32_39 <=1 
C909: x32+x40-y32_40 <=1 
C910: x32+x41-y32_41 <=1 
C911: x32+x42 <=1 
C912: x32+x45-y32_45 <=1 
C913: x32+x47-y32_47 <=1 
C914: x32+x49 <=1 
C915: x32+x50 <=1 
C916: x32+x51 <=1 
C917: x32+x52 <=1 
C918: x32+x56 <=1 
C919: x32+x57-y32_57 <=1 
C920: x32+x58 <=1 
C921: x32+x59 <=1 
C922: x32+x60-y32_60 <=1 
C923: x32+x61-y32_61 <=1 
C924: x32+x62-y32_62 <=1 
C925: x33+x35-y33_35 <=1 
C926: x33+x36 <=1 
C927: x33+x38 <=1 
C928: x33+x41 <=1 
C929: x33+x42-y33_42 <=1 
C930: x33+x43-y33_43 <=1 
C931: x33+x46-y33_46 <=1 
C932: x33+x48 <=1 
C933: x33+x49 <=1 
C934: x33+x52 <=1 
C935: x33+x53-y33_53 <=1 
C936: x33+x54-y33_54 <=1 
C937: x33+x56-y33_56 <=1 
C938: x33+x59 <=1 
C939: x33+x61 <=1 
C940: x33+x62-y33_62 <=1 
C941: x34+x35-y34_35 <=1 
C942: x34+x37 <=1 
C943: x34+x38-y34_38 <=1 
C944: x34+x39 <=1 
C945: x34+x40 <=1 
C946: x34+x42 <=1 
C947: x34+x43 <=1 
C948: x34+x46 <=1 
C949: x34+x47-y34_47 <=1 
C950: x34+x48-y34_48 <=1 
C951: x34+x49-y34_49 <=1 
C952: x34+x50-y34_50 <=1 
C953: x34+x53 <=1 
C954: x34+x54 <=1 
C955: x34+x57-y34_57 <=1 
C956: x34+x58 <=1 
C957: x34+x59-y34_59 <=1 
C958: x34+x60 <=1 
C959: x34+x61 <=1 
C960: x34+x62 <=1 
C961: x35+x37 <=1 
C962: x35+x38-y35_38 <=1 
C963: x35+x39-y35_39 <=1 
C964: x35+x40-y35_40 <=1 
C965: x35+x42 <=1 
C966: x35+x43-y35_43 <=1 
C967: x35+x46-y35_46 <=1 
C968: x35+x49 <=1 
C969: x35+x50-y35_50 <=1 
C970: x35+x51-y35_51 <=1 
C971: x35+x53 <=1 
C972: x35+x54 <=1 
C973: x35+x55-y35_55 <=1 
C974: x35+x57 <=1 
C975: x35+x59 <=1 
C976: x35+x60-y35_60 <=1 
C977: x35+x62 <=1 
C978: x36+x37 <=1 
C979: x36+x38-y36_38 <=1 
C980: x36+x40-y36_40 <=1 
C981: x36+x41 <=1 
C982: x36+x43 <=1 
C983: x36+x45-y36_45 <=1 
C984: x36+x47 <=1 
C985: x36+x48-y36_48 <=1 
C986: x36+x49-y36_49 <=1 
C987: x36+x52-y36_52 <=1 
C988: x36+x54 <=1 
C989: x36+x55 <=1 
C990: x36+x56 <=1 
C991: x36+x57 <=1 
C992: x36+x58 <=1 
C993: x36+x61-y36_61 <=1 
C994: x37+x39-y37_39 <=1 
C995: x37+x41 <=1 
C996: x37+x44 <=1 
C997: x37+x45-y37_45 <=1 
C998: x37+x47 <=1 
C999: x37+x48 <=1 
C1000: x37+x54 <=1 
C1001: x37+x57-y37_57 <=1 
C1002: x37+x59 <=1 
C1003: x37+x60-y37_60 <=1 
C1004: x37+x61 <=1 
C1005: x38+x39 <=1 
C1006: x38+x40-y38_40 <=1 
C1007: x38+x41-y38_41 <=1 
C1008: x38+x42 <=1 
C1009: x38+x43-y38_43 <=1 
C1010: x38+x44 <=1 
C1011: x38+x49-y38_49 <=1 
C1012: x38+x50 <=1 
C1013: x38+x55 <=1 
C1014: x38+x57 <=1 
C1015: x38+x59 <=1 
C1016: x38+x60 <=1 
C1017: x38+x61 <=1 
C1018: x38+x62 <=1 
C1019: x39+x40-y39_40 <=1 
C1020: x39+x41-y39_41 <=1 
C1021: x39+x42 <=1 
C1022: x39+x46-y39_46 <=1 
C1023: x39+x47-y39_47 <=1 
C1024: x39+x49 <=1 
C1025: x39+x51-y39_51 <=1 
C1026: x39+x52 <=1 
C1027: x39+x53 <=1 
C1028: x39+x54 <=1 
C1029: x39+x55 <=1 
C1030: x39+x57-y39_57 <=1 
C1031: x39+x58 <=1 
C1032: x39+x59 <=1 
C1033: x39+x61 <=1 
C1034: x39+x62-y39_62 <=1 
C1035: x40+x42 <=1 
C1036: x40+x43 <=1 
C1037: x40+x44 <=1 
C1038: x40+x46 <=1 
C1039: x40+x47 <=1 
C1040: x40+x48-y40_48 <=1 
C1041: x40+x50-y40_50 <=1 
C1042: x40+x51 <=1 
C1043: x40+x53-y40_53 <=1 
C1044: x40+x54 <=1 
C1045: x40+x56 <=1 
C1046: x40+x57-y40_57 <=1 
C1047: x40+x58-y40_58 <=1 
C1048: x40+x59 <=1 
C1049: x40+x62-y40_62 <=1 
C1050: x41+x42-y41_42 <=1 
C1051: x41+x43-y41_43 <=1 
C1052: x41+x45-y41_45 <=1 
C1053: x41+x46-y41_46 <=1 
C1054: x41+x47-y41_47 <=1 
C1055: x41+x48-y41_48 <=1 
C1056: x41+x49 <=1 
C1057: x41+x50 <=1 
C1058: x41+x52 <=1 
C1059: x41+x54-y41_54 <=1 
C1060: x41+x55-y41_55 <=1 
C1061: x41+x56-y41_56 <=1 
C1062: x41+x57 <=1 
C1063: x41+x58 <=1 
C1064: x41+x60 <=1 
C1065: x41+x61 <=1 
C1066: x41+x62 <=1 
C1067: x42+x44-y42_44 <=1 
C1068: x42+x45 <=1 
C1069: x42+x46 <=1 
C1070: x42+x47-y42_47 <=1 
C1071: x42+x48 <=1 
C1072: x42+x51-y42_51 <=1 
C1073: x42+x52-y42_52 <=1 
C1074: x42+x53 <=1 
C1075: x42+x54-y42_54 <=1 
C1076: x42+x55-y42_55 <=1 
C1077: x42+x56-y42_56 <=1 
C1078: x42+x58 <=1 
C1079: x42+x59 <=1 
C1080: x42+x60 <=1 
C1081: x42+x61-y42_61 <=1 
C1082: x42+x62 <=1 
C1083: x43+x45-y43_45 <=1 
C1084: x43+x47-y43_47 <=1 
C1085: x43+x48-y43_48 <=1 
C1086: x43+x50-y43_50 <=1 
C1087: x43+x52-y43_52 <=1 
C1088: x43+x53 <=1 
C1089: x43+x55-y43_55 <=1 
C1090: x43+x56 <=1 
C1091: x43+x57-y43_57 <=1 
C1092: x43+x58-y43_58 <=1 
C1093: x43+x59-y43_59 <=1 
C1094: x43+x60 <=1 
C1095: x43+x61-y43_61 <=1 
C1096: x44+x48 <=1 
C1097: x44+x49-y44_49 <=1 
C1098: x44+x51 <=1 
C1099: x44+x53 <=1 
C1100: x44+x56 <=1 
C1101: x44+x57 <=1 
C1102: x44+x62 <=1 
C1103: x45+x46 <=1 
C1104: x45+x52 <=1 
C1105: x45+x56 <=1 
C1106: x45+x58-y45_58 <=1 
C1107: x45+x60-y45_60 <=1 
C1108: x45+x61 <=1 
C1109: x45+x62-y45_62 <=1 
C1110: x46+x50-y46_50 <=1 
C1111: x46+x51 <=1 
C1112: x46+x52 <=1 
C1113: x46+x53 <=1 
C1114: x46+x55-y46_55 <=1 
C1115: x46+x56-y46_56 <=1 
C1116: x46+x59 <=1 
C1117: x46+x60-y46_60 <=1 
C1118: x47+x48-y47_48 <=1 
C1119: x47+x49 <=1 
C1120: x47+x52 <=1 
C1121: x47+x53-y47_53 <=1 
C1122: x47+x54 <=1 
C1123: x47+x55-y47_55 <=1 
C1124: x47+x56-y47_56 <=1 
C1125: x47+x57 <=1 
C1126: x48+x49 <=1 
C1127: x48+x50-y48_50 <=1 
C1128: x48+x52-y48_52 <=1 
C1129: x48+x53 <=1 
C1130: x48+x56-y48_56 <=1 
C1131: x48+x58-y48_58 <=1 
C1132: x48+x59 <=1 
C1133: x48+x60-y48_60 <=1 
C1134: x48+x61 <=1 
C1135: x48+x62-y48_62 <=1 
C1136: x49+x51-y49_51 <=1 
C1137: x49+x57-y49_57 <=1 
C1138: x49+x58 <=1 
C1139: x49+x59 <=1 
C1140: x49+x60-y49_60 <=1 
C1141: x49+x61-y49_61 <=1 
C1142: x50+x54 <=1 
C1143: x50+x57 <=1 
C1144: x50+x58-y50_58 <=1 
C1145: x50+x60 <=1 
C1146: x50+x61-y50_61 <=1 
C1147: x51+x53 <=1 
C1148: x51+x54 <=1 
C1149: x51+x56 <=1 
C1150: x51+x57-y51_57 <=1 
C1151: x51+x61 <=1 
C1152: x51+x62 <=1 
C1153: x52+x53-y52_53 <=1 
C1154: x52+x54 <=1 
C1155: x52+x55-y52_55 <=1 
C1156: x52+x57 <=1 
C1157: x52+x61 <=1 
C1158: x52+x62-y52_62 <=1 
C1159: x53+x54-y53_54 <=1 
C1160: x53+x56 <=1 
C1161: x53+x57-y53_57 <=1 
C1162: x53+x58 <=1 
C1163: x53+x61 <=1 
C1164: x53+x62 <=1 
C1165: x54+x56-y54_56 <=1 
C1166: x54+x57-y54_57 <=1 
C1167: x54+x60 <=1 
C1168: x54+x61-y54_61 <=1 
C1169: x54+x62 <=1 
C1170: x55+x58 <=1 
C1171: x55+x62 <=1 
C1172: x56+x58-y56_58 <=1 
C1173: x56+x59-y56_59 <=1 
C1174: x56+x60 <=1 
C1175: x57+x58 <=1 
C1176: x57+x60-y57_60 <=1 
C1177: x57+x61-y57_61 <=1 
C1178: x58+x61-y58_61 <=1 
C1179: x58+x62 <=1 
C1180: x59+x61-y59_61 <=1 
C1181: x59+x62-y59_62 <=1 
C1182: x60+x61 <=1 
C1183: x61+x62-y61_62 <=1 

binary
x0
x1
x2
x3
x4
x5
x6
x7
x8
x9
x10
x11
x12
x13
x14
x15
x16
x17
x18
x19
x20
x21
x22
x23
x24
x25
x26
x27
x28
x29
x30
x31
x32
x33
x34
x35
x36
x37
x38
x39
x40
x41
x42
x43
x44
x45
x46
x47
x48
x49
x50
x51
x52
x53
x54
x55
x56
x57
x58
x59
x60
x61
x62
