problem_generation/data/GISP/train/er_n=63_m=1183_p=0.60_SET2_setparam=100.00_alpha=0.50_524.sol
objective value:                                 1265
x11                                                 1 	(obj:100)
x12                                                 1 	(obj:100)
x18                                                 1 	(obj:100)
x20                                                 1 	(obj:100)
x26                                                 1 	(obj:100)
x29                                                 1 	(obj:100)
x42                                                 1 	(obj:100)
x43                                                 1 	(obj:100)
x44                                                 1 	(obj:100)
x49                                                 1 	(obj:100)
x50                                                 1 	(obj:100)
x55                                                 1 	(obj:100)
x61                                                 1 	(obj:100)
y43_55                                              1 	(obj:-1)
y43_50                                              1 	(obj:-1)
y29_44                                              1 	(obj:-1)
y42_44                                              1 	(obj:-1)
y50_61                                              1 	(obj:-1)
y12_43                                              1 	(obj:-1)
y42_61                                              1 	(obj:-1)
y12_29                                              1 	(obj:-1)
y11_50                                              1 	(obj:-1)
y26_61                                              1 	(obj:-1)
y18_43                                              1 	(obj:-1)
y11_49                                              1 	(obj:-1)
y18_20                                              1 	(obj:-1)
y18_29                                              1 	(obj:-1)
y11_26                                              1 	(obj:-1)
y11_12                                              1 	(obj:-1)
y29_61                                              1 	(obj:-1)
y44_49                                              1 	(obj:-1)
y29_42                                              1 	(obj:-1)
y43_61                                              1 	(obj:-1)
y20_55                                              1 	(obj:-1)
y42_55                                              1 	(obj:-1)
y11_44                                              1 	(obj:-1)
y12_18                                              1 	(obj:-1)
y20_49                                              1 	(obj:-1)
y20_26                                              1 	(obj:-1)
y12_49                                              1 	(obj:-1)
y26_50                                              1 	(obj:-1)
y49_61                                              1 	(obj:-1)
y11_61                                              1 	(obj:-1)
y12_26                                              1 	(obj:-1)
y18_50                                              1 	(obj:-1)
y11_20                                              1 	(obj:-1)
y11_29                                              1 	(obj:-1)
y26_49                                              1 	(obj:-1)
